npieces = 10;	
nplayers = 25;	
duration = [5, 2, 2, 7, 5, 1, 6, 4, 9, 2];
rehearsal = [[1, 1, 0, 1, 0, 0, 1, 0, 1, 1], [1, 0, 1, 0, 0, 0, 1, 0, 0, 1], [0, 0, 1, 0, 0, 1, 1, 0, 1, 1], [1, 1, 0, 0, 0, 0, 0, 1, 1, 0], [1, 1, 0, 1, 0, 0, 0, 0, 0, 0], [0, 0, 0, 1, 0, 1, 1, 0, 0, 1], [1, 0, 0, 1, 1, 1, 1, 0, 0, 0], [0, 0, 1, 1, 0, 1, 0, 1, 0, 1], [0, 1, 0, 0, 1, 1, 0, 1, 1, 0], [1, 1, 0, 0, 1, 0, 1, 1, 1, 0], [1, 1, 1, 0, 0, 1, 0, 0, 0, 1], [1, 1, 0, 0, 1, 0, 1, 1, 1, 1], [1, 1, 1, 0, 1, 0, 1, 1, 1, 1], [0, 0, 1, 1, 0, 0, 0, 0, 1, 1], [0, 0, 1, 1, 0, 0, 1, 1, 1, 0], [1, 0, 1, 0, 1, 0, 0, 1, 0, 1], [1, 0, 0, 0, 1, 1, 1, 0, 1, 1], [1, 1, 0, 1, 1, 1, 0, 1, 1, 0], [0, 1, 1, 1, 0, 0, 1, 0, 1, 1], [0, 1, 1, 0, 1, 0, 0, 1, 1, 1], [1, 1, 0, 1, 1, 1, 1, 0, 0, 1], [1, 1, 0, 1, 0, 0, 0, 1, 1, 1], [0, 1, 0, 1, 1, 0, 1, 1, 0, 0], [0, 1, 0, 1, 0, 1, 0, 0, 1, 1], [0, 0, 0, 1, 1, 1, 1, 0, 0, 0]];